\ Model Routes
\ LP format - for model browsing. Use MPS format to capture full model detail.
Maximize
  1533.228206194839 R{0,0} + 2591.679024458567 R{0,1}
   + 2591.679024458567 R{0,2} - 249.2301939667805 R{0,3}
   - 141.9824585376797 R{0,4} + 958.006944143963 R{0,5}
   + 958.006944143963 R{0,6} + 2151.913600224204 R{0,7}
   + 2379.31071632072 R{0,8} + 3054.718359278026 R{0,9}
   + 1444.340812906657 R{0,10} + 1279.461105398216 R{0,11}
   + 166.4802283026609 R{0,12} + 1909.677769130094 R{0,13}
   + 1829.159227955264 R{0,14} + 1614.299477167777 R{0,15}
   + 1057.109220606337 R{0,16} + 1182.746216701071 R{0,17}
   + 1660.079672829693 R{0,18} + 1364.341286346457 R{0,19}
   + 2716.888705114347 R{0,20} + 2068.750127676155 R{0,21}
   + 1797.54954340694 R{0,22} + 2424.896723610669 R{0,23}
   + 1673.675395192774 R{0,24} + 1953.297937152921 R{0,25}
   + 467.2830260317892 R{0,26} + 2318.898556101076 R{0,27}
   + 1921.674269035279 R{0,28} + 1610.735514340432 R{0,29}
   - 256.140831891889 R{1,0} + 216.3226429839851 R{1,1}
   + 843.8103196491563 R{1,2} + 1013.762460325582 R{1,3}
   + 378.6619492422957 R{1,4} + 1970.63612151008 R{1,5}
   + 348.558795158162 R{1,6} + 345.1959185298609 R{1,7}
   + 487.5221998170906 R{1,8} + 1081.018575484934 R{1,9}
   + 219.1230762283407 R{1,10} + 653.1122568527147 R{1,11}
   - 278.4443928850388 R{2,0} + 96.64804243541232 R{2,1}
   + 1554.55142910273 R{2,2} + 1059.641279119842 R{2,3}
   + 922.4027331865984 R{2,4} + 355.5207375511753 R{2,5}
   + 806.4098599363788 R{2,6} + 670.1002666830889 R{2,7}
   + 267.9436657101789 R{2,8} + 956.2678263303455 R{2,9}
   + 386.3701756770303 R{2,10} + 799.6648730963024 R{2,11}
   + 177.9883099738421 R{2,12} + 549.7321682704596 R{2,13}
   - 260.2482995389823 R{3,0} + 522.4398281754088 R{3,1}
   + 1230.485940651614 R{3,2} + 691.9238565078728 R{3,3}
   + 882.2723411383754 R{3,4} + 1013.070360991709 R{3,5}
   + 674.7567065366272 R{3,6} + 513.5616765185945 R{3,7}
   + 931.1942859001467 R{3,8} + 660.4465547549263 R{3,9}
   + 1043.04280584435 R{3,10} + 1282.126687017698 R{3,11}
   + 1284.648983762648 R{3,12} + 618.6548122994495 R{3,13}
   + 816.8913056157598 R{3,14} + 1043.04280584435 R{3,15}
   + 883.5149529757168 R{3,16} + 371.0279322640838 R{3,17}
   + 1043.04280584435 R{3,18} + 880.9364856736504 R{3,19}
   + 487.973702374969 R{3,20} + 1301.63091817943 R{3,21}
   + 733.2729730513612 R{3,22} + 696.7708779559033 R{3,23}
   + 371.0279322640838 R{3,24} + 473.7942917608218 R{3,25}
   + 763.1302260242038 R{3,26} - 242.5208875955131 R{4,0}
   + 1066.379443184683 R{4,1} + 1576.196574514046 R{4,2}
   + 1438.32217442406 R{4,3} + 1830.741348401564 R{4,4}
   + 1345.931985221646 R{4,5} + 1064.708249167109 R{4,6}
   + 1066.812638585514 R{4,7} + 1314.748998454146 R{4,8}
   + 1001.266437752662 R{4,9} + 1387.845541953318 R{4,10}
   + 1379.023708465018 R{4,11} + 1219.613020194784 R{4,12}
   + 533.3811849157037 R{4,13} + 1045.730609826848 R{4,14}
   + 1318.738112370036 R{4,15} + 1226.878186594534 R{4,16}
   + 785.652881304434 R{4,17} + 809.3859410864113 R{4,18}
   + 1206.374224083956 R{4,19} + 1503.04382460409 R{4,20}
   + 993.0133444022099 R{4,21} + 1040.536187225096 R{4,22}
   + 1387.845541953318 R{4,23} + 1387.855122497651 R{4,24}
   + 1241.858689645072 R{4,25} + 743.5383135449874 R{4,26}
   + 1388.36688225884 R{4,27} - 231.9775664337766 R{5,0}
   + 357.5804114360171 R{5,1} + 942.0446328252956 R{5,2}
   + 726.77033799638 R{5,3} + 330.3037953103419 R{5,4}
   + 279.08767350511 R{5,5} + 604.1963278902995 R{5,6}
   + 430.2245180630146 R{5,7} + 414.4928896980455 R{5,8}
   + 330.3037953103419 R{5,9} + 414.4928896980455 R{5,10}
   + 514.8755902039593 R{5,11} + 215.2727558189625 R{5,12}
   + 211.3368448701643 R{5,13} - 231.1436095783099 R{6,0}
   + 1370.402709432251 R{6,1} + 1806.330371164076 R{6,2}
   + 3076.544489173644 R{6,3} + 1653.978448844534 R{6,4}
   + 1320.153902858707 R{6,5} + 1713.532239192954 R{6,6}
   + 1794.695887768198 R{6,7} + 2054.819828906733 R{6,8}
   + 481.4230385484512 R{6,9} + 1779.939660885034 R{6,10}
   + 331.7934427868877 R{6,11} + 652.2418834947212 R{6,12}
   + 1901.727893132085 R{6,13} + 1220.47603733564 R{6,14}
   + 2520.558007864676 R{6,15} + 1503.182390838173 R{6,16}
   + 2022.477057805658 R{6,17} + 1483.632451277555 R{6,18}
   + 1371.714525223124 R{6,19} + 1005.870593914282 R{6,20}
   + 1591.986642706623 R{6,21} + 2021.497673096391 R{6,22}
Subject To
 R00: R{0,0} <= 1
 R01: R{0,1} <= 1
 R02: R{0,2} <= 1
 R03: R{0,3} <= 1
 R04: R{0,4} <= 1
 R05: R{0,5} <= 1
 R06: R{0,6} <= 1
 R07: R{0,7} <= 1
 R08: R{0,8} <= 1
 R09: R{0,9} <= 1
 R010: R{0,10} <= 1
 R011: R{0,11} <= 1
 R012: R{0,12} <= 1
 R013: R{0,13} <= 1
 R014: R{0,14} <= 1
 R015: R{0,15} <= 1
 R016: R{0,16} <= 1
 R017: R{0,17} <= 1
 R018: R{0,18} <= 1
 R019: R{0,19} <= 1
 R020: R{0,20} <= 1
 R021: R{0,21} <= 1
 R022: R{0,22} <= 1
 R023: R{0,23} <= 1
 R024: R{0,24} <= 1
 R025: R{0,25} <= 1
 R026: R{0,26} <= 1
 R027: R{0,27} <= 1
 R028: R{0,28} <= 1
 R029: R{0,29} <= 1
 R030: R{1,0} <= 1
 R031: R{1,1} <= 1
 R032: R{1,2} <= 1
 R033: R{1,3} <= 1
 R034: R{1,4} <= 1
 R035: R{1,5} <= 1
 R036: R{1,6} <= 1
 R037: R{1,7} <= 1
 R038: R{1,8} <= 1
 R039: R{1,9} <= 1
 R040: R{1,10} <= 1
 R041: R{1,11} <= 1
 R042: R{2,0} <= 1
 R043: R{2,1} <= 1
 R044: R{2,2} <= 1
 R045: R{2,3} <= 1
 R046: R{2,4} <= 1
 R047: R{2,5} <= 1
 R048: R{2,6} <= 1
 R049: R{2,7} <= 1
 R050: R{2,8} <= 1
 R051: R{2,9} <= 1
 R052: R{2,10} <= 1
 R053: R{2,11} <= 1
 R054: R{2,12} <= 1
 R055: R{2,13} <= 1
 R056: R{3,0} <= 1
 R057: R{3,1} <= 1
 R058: R{3,2} <= 1
 R059: R{3,3} <= 1
 R060: R{3,4} <= 1
 R061: R{3,5} <= 1
 R062: R{3,6} <= 1
 R063: R{3,7} <= 1
 R064: R{3,8} <= 1
 R065: R{3,9} <= 1
 R066: R{3,10} <= 1
 R067: R{3,11} <= 1
 R068: R{3,12} <= 1
 R069: R{3,13} <= 1
 R070: R{3,14} <= 1
 R071: R{3,15} <= 1
 R072: R{3,16} <= 1
 R073: R{3,17} <= 1
 R074: R{3,18} <= 1
 R075: R{3,19} <= 1
 R076: R{3,20} <= 1
 R077: R{3,21} <= 1
 R078: R{3,22} <= 1
 R079: R{3,23} <= 1
 R080: R{3,24} <= 1
 R081: R{3,25} <= 1
 R082: R{3,26} <= 1
 R083: R{4,0} <= 1
 R084: R{4,1} <= 1
 R085: R{4,2} <= 1
 R086: R{4,3} <= 1
 R087: R{4,4} <= 1
 R088: R{4,5} <= 1
 R089: R{4,6} <= 1
 R090: R{4,7} <= 1
 R091: R{4,8} <= 1
 R092: R{4,9} <= 1
 R093: R{4,10} <= 1
 R094: R{4,11} <= 1
 R095: R{4,12} <= 1
 R096: R{4,13} <= 1
 R097: R{4,14} <= 1
 R098: R{4,15} <= 1
 R099: R{4,16} <= 1
 R0100: R{4,17} <= 1
 R0101: R{4,18} <= 1
 R0102: R{4,19} <= 1
 R0103: R{4,20} <= 1
 R0104: R{4,21} <= 1
 R0105: R{4,22} <= 1
 R0106: R{4,23} <= 1
 R0107: R{4,24} <= 1
 R0108: R{4,25} <= 1
 R0109: R{4,26} <= 1
 R0110: R{4,27} <= 1
 R0111: R{5,0} <= 1
 R0112: R{5,1} <= 1
 R0113: R{5,2} <= 1
 R0114: R{5,3} <= 1
 R0115: R{5,4} <= 1
 R0116: R{5,5} <= 1
 R0117: R{5,6} <= 1
 R0118: R{5,7} <= 1
 R0119: R{5,8} <= 1
 R0120: R{5,9} <= 1
 R0121: R{5,10} <= 1
 R0122: R{5,11} <= 1
 R0123: R{5,12} <= 1
 R0124: R{5,13} <= 1
 R0125: R{6,0} <= 1
 R0126: R{6,1} <= 1
 R0127: R{6,2} <= 1
 R0128: R{6,3} <= 1
 R0129: R{6,4} <= 1
 R0130: R{6,5} <= 1
 R0131: R{6,6} <= 1
 R0132: R{6,7} <= 1
 R0133: R{6,8} <= 1
 R0134: R{6,9} <= 1
 R0135: R{6,10} <= 1
 R0136: R{6,11} <= 1
 R0137: R{6,12} <= 1
 R0138: R{6,13} <= 1
 R0139: R{6,14} <= 1
 R0140: R{6,15} <= 1
 R0141: R{6,16} <= 1
 R0142: R{6,17} <= 1
 R0143: R{6,18} <= 1
 R0144: R{6,19} <= 1
 R0145: R{6,20} <= 1
 R0146: R{6,21} <= 1
 R0147: R{6,22} <= 1
 R1_0: R{0,0} + R{0,1} + R{0,2} + R{0,3} + R{0,4} + R{0,5} + R{0,6}
   + R{0,7} + R{0,8} + R{0,9} + R{0,10} + R{0,11} + R{0,12} + R{0,13}
   + R{0,14} + R{0,15} + R{0,16} + R{0,17} + R{0,18} + R{0,19} + R{0,20}
   + R{0,21} + R{0,22} + R{0,23} + R{0,24} + R{0,25} + R{0,26} + R{0,27}
   + R{0,28} + R{0,29} <= 1
 R1_1: R{1,0} + R{1,1} + R{1,2} + R{1,3} + R{1,4} + R{1,5} + R{1,6}
   + R{1,7} + R{1,8} + R{1,9} + R{1,10} + R{1,11} <= 1
 R1_2: R{2,0} + R{2,1} + R{2,2} + R{2,3} + R{2,4} + R{2,5} + R{2,6}
   + R{2,7} + R{2,8} + R{2,9} + R{2,10} + R{2,11} + R{2,12} + R{2,13} <= 1
 R1_3: R{3,0} + R{3,1} + R{3,2} + R{3,3} + R{3,4} + R{3,5} + R{3,6}
   + R{3,7} + R{3,8} + R{3,9} + R{3,10} + R{3,11} + R{3,12} + R{3,13}
   + R{3,14} + R{3,15} + R{3,16} + R{3,17} + R{3,18} + R{3,19} + R{3,20}
   + R{3,21} + R{3,22} + R{3,23} + R{3,24} + R{3,25} + R{3,26} <= 1
 R1_4: R{4,0} + R{4,1} + R{4,2} + R{4,3} + R{4,4} + R{4,5} + R{4,6}
   + R{4,7} + R{4,8} + R{4,9} + R{4,10} + R{4,11} + R{4,12} + R{4,13}
   + R{4,14} + R{4,15} + R{4,16} + R{4,17} + R{4,18} + R{4,19} + R{4,20}
   + R{4,21} + R{4,22} + R{4,23} + R{4,24} + R{4,25} + R{4,26} + R{4,27}
   <= 1
 R1_5: R{5,0} + R{5,1} + R{5,2} + R{5,3} + R{5,4} + R{5,5} + R{5,6}
   + R{5,7} + R{5,8} + R{5,9} + R{5,10} + R{5,11} + R{5,12} + R{5,13} <= 1
 R1_6: R{6,0} + R{6,1} + R{6,2} + R{6,3} + R{6,4} + R{6,5} + R{6,6}
   + R{6,7} + R{6,8} + R{6,9} + R{6,10} + R{6,11} + R{6,12} + R{6,13}
   + R{6,14} + R{6,15} + R{6,16} + R{6,17} + R{6,18} + R{6,19} + R{6,20}
   + R{6,21} + R{6,22} <= 1
 R2_0: 7 R{0,0} + 7 R{0,1} + 7 R{0,2} + 7 R{0,7} + 7 R{0,8} + 7 R{0,9}
   + 7 R{0,10} + 7 R{0,11} + 7 R{0,13} + 7 R{0,14} + 7 R{0,15} + 7 R{0,16}
   + 7 R{0,17} + 7 R{0,18} + 7 R{0,19} + 7 R{0,20} + 7 R{0,21} + 7 R{0,22}
   + 7 R{0,23} + 7 R{0,24} + 7 R{0,25} + 7 R{0,26} + 7 R{0,27} + 7 R{0,28}
   + 7 R{0,29} <= 7
 R2_1: 10 R{2,7} + 10 R{2,9} + 10 R{2,10} + 10 R{3,1} + 10 R{3,2}
   + 10 R{3,3} + 10 R{3,4} + 10 R{3,5} + 10 R{3,6} + 10 R{3,8} + 10 R{3,9}
   + 10 R{3,10} + 10 R{3,11} + 10 R{3,12} + 10 R{3,13} + 10 R{3,15}
   + 10 R{3,16} + 10 R{3,18} + 10 R{3,21} + 10 R{3,22} + 10 R{3,25}
   + 10 R{3,26} + 10 R{5,7} <= 10
 R2_2: 15 R{6,3} + 15 R{6,15} + 15 R{6,22} <= 16
 R2_3: 4 R{0,4} + 4 R{0,5} + 4 R{0,6} + 4 R{0,12} + 4 R{1,3} + 4 R{1,4}
   + 4 R{1,8} + 4 R{1,11} + 4 R{6,5} <= 4
 R2_4: <= 0
 R2_5: 5 R{0,4} + 5 R{0,5} + 5 R{0,6} <= 5
 R2_6: 10 R{0,12} + 10 R{1,1} + 10 R{1,2} + 10 R{1,3} + 10 R{1,4}
   + 10 R{1,7} + 10 R{1,11} + 10 R{2,5} + 10 R{5,4} + 10 R{5,9} <= 10
 R2_7: 6 R{1,1} + 6 R{1,4} + 6 R{1,8} <= 6
 R2_8: <= 0
 R2_9: 12 R{4,1} + 12 R{4,2} + 12 R{4,3} + 12 R{4,4} + 12 R{4,5}
   + 12 R{4,6} + 12 R{4,7} + 12 R{4,8} + 12 R{4,9} + 12 R{4,10}
   + 12 R{4,11} + 12 R{4,15} + 12 R{4,16} + 12 R{4,17} + 12 R{4,18}
   + 12 R{4,22} + 12 R{4,23} + 12 R{4,24} + 12 R{4,25} <= 12
 R2_10: 8 R{6,1} + 8 R{6,2} + 8 R{6,4} + 8 R{6,5} + 8 R{6,8} <= 8
 R2_11: 15 R{6,20} <= 15
 R2_12: <= 0
 R2_13: <= 0
 R2_14: <= 0
 R2_15: 11 R{0,0} + 11 R{0,1} + 11 R{0,2} + 11 R{0,8} + 11 R{0,10}
   + 11 R{0,13} + 11 R{0,17} + 11 R{0,18} + 11 R{0,19} + 11 R{0,22}
   + 11 R{0,23} + 11 R{0,24} + 11 R{0,27} + 11 R{0,28} + 11 R{4,1}
   + 11 R{4,2} + 11 R{4,15} + 11 R{4,24} <= 11
 R2_16: <= 0
 R2_17: 11 R{0,22} + 11 R{0,24} + 11 R{0,29} <= 11
 R2_18: <= 0
 R2_19: 11 R{0,7} + 8 R{0,9} + 11 R{0,11} + 8 R{0,20} + 11 R{1,5}
   + 11 R{1,8} + 11 R{2,8} + 11 R{4,1} + 11 R{4,2} + 11 R{4,3} + 11 R{4,4}
   + 11 R{4,15} + 11 R{4,24} + 11 R{6,4} + 11 R{6,5} + 11 R{6,6}
   + 11 R{6,8} + 11 R{6,13} + 11 R{6,15} + 11 R{6,21} <= 11
 R2_20: 13 R{0,8} + 13 R{0,10} + 13 R{0,13} + 13 R{0,15} + 13 R{0,21}
   + 13 R{0,25} + 13 R{0,27} + 13 R{0,28} + 13 R{2,2} + 13 R{2,3}
   + 13 R{2,6} + 13 R{2,7} + 13 R{2,9} + 13 R{2,11} + 13 R{2,12}
   + 13 R{2,13} + 13 R{3,4} + 13 R{3,5} + 13 R{3,9} + 13 R{3,12}
   + 13 R{3,14} + 13 R{3,16} + 13 R{3,17} + 13 R{3,19} + 13 R{3,23}
   + 13 R{3,24} + 13 R{3,26} + 13 R{4,5} + 13 R{4,8} + 13 R{4,10}
   + 13 R{4,20} + 13 R{4,23} + 13 R{4,24} + 13 R{4,27} + 13 R{5,3}
   + 13 R{5,6} + 13 R{5,8} + 13 R{5,10} + 13 R{5,11} + 13 R{5,12}
   + 13 R{6,1} + 13 R{6,2} + 13 R{6,3} + 13 R{6,7} + 13 R{6,10}
   + 13 R{6,14} + 13 R{6,15} + 13 R{6,16} + 13 R{6,17} + 13 R{6,18}
   + 13 R{6,19} + 13 R{6,22} <= 13
 R2_21: <= 0
 R2_22: 10 R{0,26} + 10 R{4,21} + 10 R{4,26} + 10 R{6,3} + 10 R{6,15}
   + 10 R{6,18} + 10 R{6,22} <= 10
 R2_23: 14 R{4,4} + 14 R{4,12} + 14 R{4,21} + 14 R{6,2} + 14 R{6,3}
   + 14 R{6,4} + 14 R{6,7} + 14 R{6,8} + 14 R{6,13} + 14 R{6,15}
   + 14 R{6,17} + 14 R{6,21} + 14 R{6,22} <= 14
 R2_24: 10 R{0,14} + 10 R{1,6} + 10 R{2,3} + 10 R{3,1} + 10 R{3,2}
   + 10 R{3,4} + 10 R{3,7} + 10 R{3,11} + 10 R{3,13} + 10 R{3,20}
   + 10 R{3,22} + 10 R{4,25} + 10 R{5,13} + 10 R{6,3} + 2 R{6,15} <= 10
 R2_25: 13 R{0,0} + 13 R{0,1} + 13 R{0,2} + 13 R{0,7} + 13 R{0,8}
   + 13 R{0,9} + 13 R{0,10} + 13 R{0,11} + 13 R{0,13} + 13 R{0,14}
   + 13 R{0,15} + 13 R{0,16} + 13 R{0,17} + 13 R{0,18} + 13 R{0,19}
   + 13 R{0,20} + 13 R{0,21} + 13 R{0,23} + 13 R{0,25} + 13 R{0,27}
   + 13 R{0,28} + 13 R{4,1} + 13 R{4,2} + 13 R{4,3} + 13 R{4,4} + 13 R{4,5}
   + 13 R{4,7} + 13 R{4,8} + 13 R{4,9} + 13 R{4,10} + 13 R{4,11}
   + 13 R{4,12} + 13 R{4,14} + 13 R{4,15} + 13 R{4,16} + 13 R{4,19}
   + 13 R{4,20} + 13 R{4,21} + 13 R{4,22} + 13 R{4,23} + 13 R{4,24} <= 13
 R2_26: 6 R{2,2} + 6 R{2,3} + 6 R{2,4} + 6 R{2,5} + 6 R{2,10} + 6 R{2,11}
   + 6 R{5,1} + 6 R{5,2} + 6 R{5,3} + 6 R{5,5} + 6 R{5,13} <= 6
 R2_27: 5 R{0,5} + 5 R{0,6} + 5 R{0,7} + 5 R{0,9} + 5 R{0,15} + 5 R{0,19}
   + 5 R{0,20} + 5 R{0,21} + 5 R{0,23} + 5 R{0,25} + 5 R{1,5} + 5 R{1,7}
   + 5 R{1,11} + 5 R{2,11} + 5 R{3,3} + 5 R{3,5} + 5 R{3,6} + 5 R{3,8}
   + 5 R{3,10} + 5 R{3,14} + 5 R{3,15} + 5 R{3,16} + 5 R{3,18} + 5 R{3,19}
   + 5 R{3,21} + 5 R{3,23} + 5 R{4,10} + 5 R{4,15} + 5 R{4,23} + 5 R{6,1}
   + 5 R{6,2} + 5 R{6,3} + 5 R{6,4} + 5 R{6,8} + 5 R{6,10} + 5 R{6,13}
   + 5 R{6,15} + 5 R{6,17} + 5 R{6,18} <= 5
 R2_28: <= 0
 R2_29: <= 0
 R2_30: <= 0
 R2_31: <= 0
 R2_32: 7 R{2,1} + 7 R{2,3} + 7 R{2,4} + 7 R{2,5} + 7 R{2,6} + 7 R{2,8}
   + 7 R{2,10} + 7 R{2,13} + 7 R{5,8} + 7 R{5,10} <= 7
 R2_33: 12 R{1,5} + 12 R{1,6} + 12 R{1,9} + 12 R{1,10} + 12 R{3,10}
   + 12 R{3,13} + 12 R{3,15} + 12 R{3,18} + 12 R{3,19} + 12 R{3,20}
   + 12 R{3,25} + 12 R{4,25} <= 12
 R2_34: 5 R{0,0} + 5 R{0,1} + 5 R{0,2} + 5 R{0,7} + 5 R{0,8} + 5 R{0,9}
   + 5 R{0,10} + 5 R{0,11} + 5 R{0,13} + 5 R{0,14} + 5 R{0,15} + 5 R{0,17}
   + 5 R{0,18} + 5 R{0,19} + 5 R{0,20} + 5 R{0,21} + 5 R{0,22} + 5 R{0,23}
   + 5 R{0,27} + 5 R{0,28} + 5 R{4,17} + 5 R{4,27} + 5 R{6,9} + 5 R{6,16}
   <= 5
 R2_35: <= 0
 R2_36: 15 R{0,4} + 15 R{0,5} + 15 R{0,6} + 15 R{0,12} <= 16
 R2_37: 5 R{3,1} + 5 R{3,2} + 5 R{3,3} + 5 R{3,6} + 5 R{3,8} + 5 R{3,10}
   + 5 R{3,11} + 5 R{3,13} + 2 R{3,14} + 5 R{3,15} + 2 R{3,17} + 5 R{3,18}
   + 2 R{3,19} + 5 R{3,21} + 5 R{3,22} + 2 R{3,24} + 5 R{3,25} <= 5
 R2_38: <= 0
 R2_39: 15 R{0,0} + 15 R{0,1} + 15 R{0,2} + 15 R{0,7} + 15 R{0,8}
   + 15 R{0,9} + 15 R{0,10} + 15 R{0,11} + 15 R{0,13} + 15 R{0,14}
   + 15 R{0,16} + 15 R{0,17} + 15 R{0,18} + 15 R{0,19} + 15 R{0,21}
   + 15 R{0,22} + 15 R{0,23} + 15 R{0,25} + 15 R{0,26} + 15 R{0,27}
   + 15 R{0,28} <= 17
 R2_40: 15 R{2,1} + 15 R{2,2} + 15 R{2,6} + 15 R{2,7} + 15 R{2,9}
   + 15 R{2,13} <= 15
 R2_41: 5 R{0,0} + 5 R{0,1} + 5 R{0,2} + 5 R{0,7} + 5 R{0,8} + 5 R{0,9}
   + 5 R{0,14} + 5 R{0,16} + 5 R{0,18} + 5 R{0,21} + 5 R{0,22} + 5 R{0,23}
   + 5 R{0,24} + 5 R{0,25} + 5 R{0,27} + 5 R{0,28} + 5 R{0,29} + 5 R{3,7}
   + 5 R{4,6} + 5 R{4,9} + 5 R{4,11} + 5 R{4,16} + 5 R{4,18} + 5 R{4,19}
   + 5 R{6,5} + 5 R{6,6} + 5 R{6,8} + 5 R{6,11} + 5 R{6,12} + 5 R{6,13}
   <= 5
 R2_42: 4 R{2,1} + 4 R{2,3} + 4 R{2,6} <= 4
 R2_43: <= 0
 R2_44: <= 0
 R2_45: <= 0
 R2_46: 9 R{0,20} + 9 R{0,24} + 9 R{0,29} + 9 R{4,3} + 9 R{4,5} + 9 R{4,6}
   + 9 R{4,7} + 9 R{4,9} + 9 R{4,10} + 9 R{4,11} + 9 R{4,13} + 9 R{4,14}
   + 9 R{4,16} + 9 R{4,17} + 9 R{4,18} + 9 R{4,19} + 9 R{4,22} + 9 R{4,23}
   + 9 R{4,25} + 9 R{4,26} + 9 R{4,27} <= 9
 R2_47: 7 R{0,0} + 7 R{0,1} + 7 R{0,2} + 7 R{0,8} + 7 R{0,9} + 7 R{0,13}
   + 7 R{0,23} + 7 R{5,1} + 7 R{5,2} + 7 R{5,13} <= 7
 R2_48: 4 R{0,29} + 4 R{4,1} + 4 R{4,2} + 4 R{4,3} + 4 R{4,5} + 4 R{4,6}
   + 4 R{4,7} + 4 R{4,8} + 4 R{4,9} + 4 R{4,11} + 4 R{4,13} + 4 R{4,15}
   + 4 R{4,16} + 4 R{4,17} + 4 R{4,18} + 4 R{4,24} + 4 R{4,25} <= 4
 R2_49: <= 0
 R2_50: <= 0
 R2_51: 11 R{2,3} + 11 R{2,4} + 11 R{2,6} + 11 R{3,20} + 11 R{4,1}
   + 11 R{4,3} + 11 R{4,7} + 11 R{4,11} + 11 R{4,15} + 11 R{4,25} <= 11
 R2_52: 10 R{4,12} + 10 R{4,14} + 10 R{4,20} + 10 R{4,21} + 10 R{4,26}
   + 10 R{4,27} <= 10
 R2_53: 13 R{4,1} + 13 R{4,2} + 13 R{4,3} + 13 R{4,4} + 13 R{4,5}
   + 13 R{4,6} + 13 R{4,7} + 13 R{4,10} + 13 R{4,15} + 13 R{4,17}
   + 13 R{4,23} + 13 R{4,24} <= 13
 R2_54: 9 R{3,1} + 9 R{3,2} + 9 R{3,3} + 9 R{3,4} + 9 R{3,5} + 9 R{3,6}
   + 9 R{3,7} + 9 R{3,8} + 9 R{3,11} + 9 R{3,12} + 9 R{3,14} + 9 R{3,17}
   + 9 R{3,20} + 9 R{3,22} + 9 R{3,23} + 9 R{3,24} + 9 R{3,25} + 9 R{3,26}
   <= 9
 R2_55: 8 R{3,22} + 8 R{6,1} + 8 R{6,2} + 8 R{6,4} + 8 R{6,5} + 8 R{6,6}
   + 8 R{6,7} + 8 R{6,8} + 8 R{6,9} + 8 R{6,10} + 8 R{6,13} + 8 R{6,14}
   + 8 R{6,16} + 8 R{6,17} + 8 R{6,18} + 8 R{6,19} + 8 R{6,20} + 8 R{6,21}
   <= 8
 R2_56: 6 R{0,1} + 6 R{0,2} + 6 R{0,8} + 6 R{0,9} + 6 R{0,13} + 6 R{0,14}
   + 6 R{0,20} + 6 R{0,22} + 6 R{0,24} + 6 R{0,27} + 6 R{0,29} + 6 R{1,5}
   + 6 R{4,8} + 6 R{4,20} + 6 R{4,22} + 6 R{6,3} + 6 R{6,10} + 6 R{6,14}
   + 6 R{6,16} + 6 R{6,19} <= 6
 R2_57: <= 0
 R2_58: <= 0
 R2_59: 10 R{1,9} + 10 R{1,10} + 10 R{3,8} + 10 R{3,10} + 10 R{3,15}
   + 10 R{3,18} + 10 R{4,12} + 10 R{4,14} + 10 R{6,12} <= 10
 R2_60: <= 0
 R2_61: 9 R{4,12} + 9 R{4,13} + 9 R{4,14} + 9 R{4,19} + 9 R{4,21}
   + 9 R{4,26} + 9 R{4,27} + 9 R{6,13} <= 9
 R2_62: <= 0
 R2_63: <= 0
 R2_64: <= 0
 R2_65: 5 R{4,25} + 5 R{6,1} + 5 R{6,2} + 5 R{6,3} + 5 R{6,4} + 5 R{6,5}
   + 5 R{6,6} + 5 R{6,7} + 5 R{6,8} + 5 R{6,9} + 5 R{6,10} + 5 R{6,11}
   + 5 R{6,12} + 5 R{6,14} + 5 R{6,15} + 5 R{6,16} + 5 R{6,17} + 5 R{6,18}
   + 5 R{6,19} + 5 R{6,20} + 5 R{6,21} + 5 R{6,22} <= 5
 R2_66: 7 R{6,1} + 7 R{6,2} + 7 R{6,4} + 7 R{6,5} + 7 R{6,7} + 7 R{6,8}
   + 7 R{6,10} + 7 R{6,13} + 7 R{6,16} + 7 R{6,17} + 7 R{6,18} + 7 R{6,19}
   + 7 R{6,21} <= 7
 R2_67: 3 R{0,17} + 3 R{0,18} + 3 R{0,19} + 3 R{0,25} + 3 R{4,20}
   + 3 R{6,3} + 3 R{6,7} + 3 R{6,15} + 3 R{6,17} + 3 R{6,20} + 3 R{6,21}
   + 3 R{6,22} <= 3
 R2_68: 6 R{1,1} + 6 R{1,2} + 6 R{1,3} + 6 R{1,4} + 6 R{1,5} + 6 R{1,6}
   + 6 R{1,8} + 6 R{1,9} + 6 R{1,11} <= 6
 R2_69: 7 R{0,0} + 7 R{0,1} + 7 R{0,2} + 7 R{0,7} + 7 R{0,8} + 7 R{0,10}
   + 7 R{0,11} + 7 R{0,13} + 7 R{0,15} + 7 R{0,16} + 7 R{0,17} + 7 R{0,18}
   + 7 R{0,22} + 7 R{0,24} + 7 R{0,27} + 7 R{0,28} + 7 R{4,1} + 7 R{4,2}
   + 7 R{4,3} + 7 R{4,4} + 7 R{4,5} + 7 R{4,6} + 7 R{4,7} + 7 R{4,8}
   + 7 R{4,11} + 7 R{4,16} + 7 R{4,19} + 7 R{4,20} + 7 R{4,22} + 7 R{4,24}
   <= 7
 R2_70: 11 R{1,1} + 11 R{1,2} + 11 R{1,4} <= 11
 R2_71: 7 R{3,9} + 7 R{3,26} + 7 R{4,12} + 7 R{4,27} + 7 R{6,1} + 7 R{6,2}
   + 7 R{6,3} + 7 R{6,4} + 7 R{6,5} + 7 R{6,6} + 7 R{6,7} + 7 R{6,8}
   + 7 R{6,9} + 7 R{6,10} + 7 R{6,14} + 7 R{6,15} + 7 R{6,16} + 7 R{6,18}
   + 7 R{6,19} + 7 R{6,20} + 7 R{6,21} + 7 R{6,22} <= 7
 R2_72: <= 0
 R2_73: 11 R{0,0} + 11 R{0,1} + 11 R{0,2} + 11 R{0,7} + 11 R{0,8}
   + 11 R{0,9} + 11 R{0,10} + 11 R{0,11} + 11 R{0,13} + 11 R{0,14}
   + 11 R{0,15} + 11 R{0,16} + 11 R{0,20} + 11 R{0,21} + 11 R{0,22}
   + 11 R{0,23} + 11 R{0,24} + 11 R{0,26} + 11 R{0,27} + 11 R{0,28}
   + 11 R{0,29} <= 11
 R2_74: 5 R{5,1} + 5 R{5,6} + 5 R{5,7} <= 5
 R2_75: 8 R{6,1} + 8 R{6,2} + 8 R{6,3} + 8 R{6,7} + 8 R{6,10} + 8 R{6,14}
   + 8 R{6,15} + 8 R{6,17} + 8 R{6,19} + 8 R{6,20} + 8 R{6,22} <= 8
 R2_76: 12 R{2,2} + 12 R{2,9} + 12 R{5,1} + 12 R{5,2} + 12 R{5,3}
   + 12 R{5,4} + 12 R{5,5} + 12 R{5,6} + 12 R{5,7} + 12 R{5,9} + 12 R{5,11}
   + 12 R{6,3} + 12 R{6,22} <= 12
 R2_77: 7 R{0,1} + 7 R{0,2} + 7 R{0,5} + 7 R{0,6} + 7 R{0,9} + 7 R{0,20}
   + 7 R{0,23} + 7 R{1,2} + 7 R{1,3} + 7 R{1,5} + 7 R{1,9} + 7 R{2,2}
   + 7 R{2,4} + 7 R{3,2} + 7 R{3,11} + 7 R{3,12} + 7 R{3,21} + 7 R{4,2}
   + 7 R{4,4} + 7 R{5,2} + 7 R{6,6} <= 7
Bounds
End
